p cnf 1737
-25 -543
-26 -546
-27 -549
-28 -552
-29 -555
-30 -558
-31 -561
-32 -564
-33 -567
-34 -570
-35 -573
-36 -576
-37 -579
-38 -582
-39 -585
-40 -588
-41 -591
-42 -594
-43 -597
-44 -600
-45 -603
-46 -606
-47 -609
-48 -612
-49 613
-50 614
-51 615
-52 616
-53 617
-54 618
-55 619
-56 620
-57 621
-58 622
-59 623
-60 624
-61 625
-62 626
-63 -26
-63 -27
26 27 63
-64 -28
-64 -29
28 29 64
-65 -30
-65 -31
30 31 65
-66 -32
-66 -33
32 33 66
-67 -34
-67 -35
34 35 67
-68 -36
-68 -37
36 37 68
-69 -38
-69 -39
38 39 69
-70 -40
-70 -41
40 41 70
-71 -42
-71 -43
42 43 71
-72 -44
-72 -45
44 45 72
-73 -46
-73 -47
46 47 73
-74 -48
-74 -49
48 49 74
-75 -50
-75 -51
50 51 75
-76 -52
-76 -53
52 53 76
-77 -54
-77 -55
54 55 77
-78 -56
-78 -57
56 57 78
-79 -58
-79 -59
58 59 79
-80 -60
-80 -61
60 61 80
-81 63
-81 64
-63 -64 81
-82 65
-82 66
-65 -66 82
-83 67
-83 68
-67 -68 83
-84 69
-84 70
-69 -70 84
-85 71
-85 72
-71 -72 85
-86 73
-86 74
-73 -74 86
-87 75
-87 76
-75 -76 87
-88 77
-88 78
-77 -78 88
-89 79
-89 80
-79 -80 89
-90 81
-90 82
-81 -82 90
-91 83
-91 84
-83 -84 91
-92 85
-92 86
-85 -86 92
-93 87
-93 88
-87 -88 93
-94 -62
-94 89
62 -89 94
-95 90
-95 91
-90 -91 95
-96 92
-96 93
-92 -93 96
-97 95
-97 96
-95 -96 97
-98 94
-98 97
-94 -97 98
-99 -25
-99 26
25 -26 99
-100 25
-100 -26
-25 26 100
-101 -99
-101 -100
99 100 101
-102 25
-102 26
-25 -26 102
-103 -25
-103 -101
25 101 103
-104 25
-104 101
-25 -101 104
-105 -103
-105 -104
103 104 105
-106 25
-106 -101
-25 101 106
-107 -102
-107 -106
102 106 107
-108 -26
-108 27
26 -27 108
-109 26
-109 -27
-26 27 109
-110 -108
-110 -109
108 109 110
-111 26
-111 27
-26 -27 111
-112 107
-112 -110
-107 110 112
-113 -107
-113 110
107 -110 113
-114 -112
-114 -113
112 113 114
-115 -107
-115 -110
107 110 115
-116 -111
-116 -115
111 115 116
-117 -27
-117 28
27 -28 117
-118 27
-118 -28
-27 28 118
-119 -117
-119 -118
117 118 119
-120 27
-120 28
-27 -28 120
-121 116
-121 -119
-116 119 121
-122 -116
-122 119
116 -119 122
-123 -121
-123 -122
121 122 123
-124 -116
-124 -119
116 119 124
-125 -120
-125 -124
120 124 125
-126 -28
-126 29
28 -29 126
-127 28
-127 -29
-28 29 127
-128 -126
-128 -127
126 127 128
-129 28
-129 29
-28 -29 129
-130 125
-130 -128
-125 128 130
-131 -125
-131 128
125 -128 131
-132 -130
-132 -131
130 131 132
-133 -125
-133 -128
125 128 133
-134 -129
-134 -133
129 133 134
-135 -29
-135 30
29 -30 135
-136 29
-136 -30
-29 30 136
-137 -135
-137 -136
135 136 137
-138 29
-138 30
-29 -30 138
-139 134
-139 -137
-134 137 139
-140 -134
-140 137
134 -137 140
-141 -139
-141 -140
139 140 141
-142 -134
-142 -137
134 137 142
-143 -138
-143 -142
138 142 143
-144 -30
-144 31
30 -31 144
-145 30
-145 -31
-30 31 145
-146 -144
-146 -145
144 145 146
-147 30
-147 31
-30 -31 147
-148 143
-148 -146
-143 146 148
-149 -143
-149 146
143 -146 149
-150 -148
-150 -149
148 149 150
-151 -143
-151 -146
143 146 151
-152 -147
-152 -151
147 151 152
-153 -31
-153 32
31 -32 153
-154 31
-154 -32
-31 32 154
-155 -153
-155 -154
153 154 155
-156 31
-156 32
-31 -32 156
-157 152
-157 -155
-152 155 157
-158 -152
-158 155
152 -155 158
-159 -157
-159 -158
157 158 159
-160 -152
-160 -155
152 155 160
-161 -156
-161 -160
156 160 161
-162 -32
-162 33
32 -33 162
-163 32
-163 -33
-32 33 163
-164 -162
-164 -163
162 163 164
-165 32
-165 33
-32 -33 165
-166 161
-166 -164
-161 164 166
-167 -161
-167 164
161 -164 167
-168 -166
-168 -167
166 167 168
-169 -161
-169 -164
161 164 169
-170 -165
-170 -169
165 169 170
-171 -33
-171 34
33 -34 171
-172 33
-172 -34
-33 34 172
-173 -171
-173 -172
171 172 173
-174 33
-174 34
-33 -34 174
-175 170
-175 -173
-170 173 175
-176 -170
-176 173
170 -173 176
-177 -175
-177 -176
175 176 177
-178 -170
-178 -173
170 173 178
-179 -174
-179 -178
174 178 179
-180 -34
-180 35
34 -35 180
-181 34
-181 -35
-34 35 181
-182 -180
-182 -181
180 181 182
-183 34
-183 35
-34 -35 183
-184 179
-184 -182
-179 182 184
-185 -179
-185 182
179 -182 185
-186 -184
-186 -185
184 185 186
-187 -179
-187 -182
179 182 187
-188 -183
-188 -187
183 187 188
-189 -35
-189 36
35 -36 189
-190 35
-190 -36
-35 36 190
-191 -189
-191 -190
189 190 191
-192 35
-192 36
-35 -36 192
-193 188
-193 -191
-188 191 193
-194 -188
-194 191
188 -191 194
-195 -193
-195 -194
193 194 195
-196 -188
-196 -191
188 191 196
-197 -192
-197 -196
192 196 197
-198 -36
-198 37
36 -37 198
-199 36
-199 -37
-36 37 199
-200 -198
-200 -199
198 199 200
-201 36
-201 37
-36 -37 201
-202 197
-202 -200
-197 200 202
-203 -197
-203 200
197 -200 203
-204 -202
-204 -203
202 203 204
-205 -197
-205 -200
197 200 205
-206 -201
-206 -205
201 205 206
-207 -37
-207 38
37 -38 207
-208 37
-208 -38
-37 38 208
-209 -207
-209 -208
207 208 209
-210 37
-210 38
-37 -38 210
-211 206
-211 -209
-206 209 211
-212 -206
-212 209
206 -209 212
-213 -211
-213 -212
211 212 213
-214 -206
-214 -209
206 209 214
-215 -210
-215 -214
210 214 215
-216 -38
-216 39
38 -39 216
-217 38
-217 -39
-38 39 217
-218 -216
-218 -217
216 217 218
-219 38
-219 39
-38 -39 219
-220 215
-220 -218
-215 218 220
-221 -215
-221 218
215 -218 221
-222 -220
-222 -221
220 221 222
-223 -215
-223 -218
215 218 223
-224 -219
-224 -223
219 223 224
-225 -39
-225 40
39 -40 225
-226 39
-226 -40
-39 40 226
-227 -225
-227 -226
225 226 227
-228 39
-228 40
-39 -40 228
-229 224
-229 -227
-224 227 229
-230 -224
-230 227
224 -227 230
-231 -229
-231 -230
229 230 231
-232 -224
-232 -227
224 227 232
-233 -228
-233 -232
228 232 233
-234 -40
-234 41
40 -41 234
-235 40
-235 -41
-40 41 235
-236 -234
-236 -235
234 235 236
-237 40
-237 41
-40 -41 237
-238 233
-238 -236
-233 236 238
-239 -233
-239 236
233 -236 239
-240 -238
-240 -239
238 239 240
-241 -233
-241 -236
233 236 241
-242 -237
-242 -241
237 241 242
-243 -41
-243 42
41 -42 243
-244 41
-244 -42
-41 42 244
-245 -243
-245 -244
243 244 245
-246 41
-246 42
-41 -42 246
-247 242
-247 -245
-242 245 247
-248 -242
-248 245
242 -245 248
-249 -247
-249 -248
247 248 249
-250 -242
-250 -245
242 245 250
-251 -246
-251 -250
246 250 251
-252 -42
-252 43
42 -43 252
-253 42
-253 -43
-42 43 253
-254 -252
-254 -253
252 253 254
-255 42
-255 43
-42 -43 255
-256 251
-256 -254
-251 254 256
-257 -251
-257 254
251 -254 257
-258 -256
-258 -257
256 257 258
-259 -251
-259 -254
251 254 259
-260 -255
-260 -259
255 259 260
-261 -43
-261 44
43 -44 261
-262 43
-262 -44
-43 44 262
-263 -261
-263 -262
261 262 263
-264 43
-264 44
-43 -44 264
-265 260
-265 -263
-260 263 265
-266 -260
-266 263
260 -263 266
-267 -265
-267 -266
265 266 267
-268 -260
-268 -263
260 263 268
-269 -264
-269 -268
264 268 269
-270 -44
-270 45
44 -45 270
-271 44
-271 -45
-44 45 271
-272 -270
-272 -271
270 271 272
-273 44
-273 45
-44 -45 273
-274 269
-274 -272
-269 272 274
-275 -269
-275 272
269 -272 275
-276 -274
-276 -275
274 275 276
-277 -269
-277 -272
269 272 277
-278 -273
-278 -277
273 277 278
-279 -45
-279 46
45 -46 279
-280 45
-280 -46
-45 46 280
-281 -279
-281 -280
279 280 281
-282 45
-282 46
-45 -46 282
-283 278
-283 -281
-278 281 283
-284 -278
-284 281
278 -281 284
-285 -283
-285 -284
283 284 285
-286 -278
-286 -281
278 281 286
-287 -282
-287 -286
282 286 287
-288 -46
-288 47
46 -47 288
-289 46
-289 -47
-46 47 289
-290 -288
-290 -289
288 289 290
-291 46
-291 47
-46 -47 291
-292 287
-292 -290
-287 290 292
-293 -287
-293 290
287 -290 293
-294 -292
-294 -293
292 293 294
-295 -287
-295 -290
287 290 295
-296 -291
-296 -295
291 295 296
-297 -47
-297 48
47 -48 297
-298 47
-298 -48
-47 48 298
-299 -297
-299 -298
297 298 299
-300 47
-300 48
-47 -48 300
-301 296
-301 -299
-296 299 301
-302 -296
-302 299
296 -299 302
-303 -301
-303 -302
301 302 303
-304 -296
-304 -299
296 299 304
-305 -300
-305 -304
300 304 305
-306 -48
-306 49
48 -49 306
-307 48
-307 -49
-48 49 307
-308 -306
-308 -307
306 307 308
-309 48
-309 49
-48 -49 309
-310 305
-310 -308
-305 308 310
-311 -305
-311 308
305 -308 311
-312 -310
-312 -311
310 311 312
-313 -305
-313 -308
305 308 313
-314 -309
-314 -313
309 313 314
-315 -49
-315 50
49 -50 315
-316 49
-316 -50
-49 50 316
-317 -315
-317 -316
315 316 317
-318 49
-318 50
-49 -50 318
-319 314
-319 -317
-314 317 319
-320 -314
-320 317
314 -317 320
-321 -319
-321 -320
319 320 321
-322 -314
-322 -317
314 317 322
-323 -318
-323 -322
318 322 323
-324 -50
-324 51
50 -51 324
-325 50
-325 -51
-50 51 325
-326 -324
-326 -325
324 325 326
-327 50
-327 51
-50 -51 327
-328 323
-328 -326
-323 326 328
-329 -323
-329 326
323 -326 329
-330 -328
-330 -329
328 329 330
-331 -323
-331 -326
323 326 331
-332 -327
-332 -331
327 331 332
-333 -51
-333 52
51 -52 333
-334 51
-334 -52
-51 52 334
-335 -333
-335 -334
333 334 335
-336 51
-336 52
-51 -52 336
-337 332
-337 -335
-332 335 337
-338 -332
-338 335
332 -335 338
-339 -337
-339 -338
337 338 339
-340 -332
-340 -335
332 335 340
-341 -336
-341 -340
336 340 341
-342 -52
-342 53
52 -53 342
-343 52
-343 -53
-52 53 343
-344 -342
-344 -343
342 343 344
-345 52
-345 53
-52 -53 345
-346 341
-346 -344
-341 344 346
-347 -341
-347 344
341 -344 347
-348 -346
-348 -347
346 347 348
-349 -341
-349 -344
341 344 349
-350 -345
-350 -349
345 349 350
-351 -53
-351 54
53 -54 351
-352 53
-352 -54
-53 54 352
-353 -351
-353 -352
351 352 353
-354 53
-354 54
-53 -54 354
-355 350
-355 -353
-350 353 355
-356 -350
-356 353
350 -353 356
-357 -355
-357 -356
355 356 357
-358 -350
-358 -353
350 353 358
-359 -354
-359 -358
354 358 359
-360 -54
-360 55
54 -55 360
-361 54
-361 -55
-54 55 361
-362 -360
-362 -361
360 361 362
-363 54
-363 55
-54 -55 363
-364 359
-364 -362
-359 362 364
-365 -359
-365 362
359 -362 365
-366 -364
-366 -365
364 365 366
-367 -359
-367 -362
359 362 367
-368 -363
-368 -367
363 367 368
-369 -55
-369 56
55 -56 369
-370 55
-370 -56
-55 56 370
-371 -369
-371 -370
369 370 371
-372 55
-372 56
-55 -56 372
-373 368
-373 -371
-368 371 373
-374 -368
-374 371
368 -371 374
-375 -373
-375 -374
373 374 375
-376 -368
-376 -371
368 371 376
-377 -372
-377 -376
372 376 377
-378 -56
-378 57
56 -57 378
-379 56
-379 -57
-56 57 379
-380 -378
-380 -379
378 379 380
-381 56
-381 57
-56 -57 381
-382 377
-382 -380
-377 380 382
-383 -377
-383 380
377 -380 383
-384 -382
-384 -383
382 383 384
-385 -377
-385 -380
377 380 385
-386 -381
-386 -385
381 385 386
-387 -57
-387 58
57 -58 387
-388 57
-388 -58
-57 58 388
-389 -387
-389 -388
387 388 389
-390 57
-390 58
-57 -58 390
-391 386
-391 -389
-386 389 391
-392 -386
-392 389
386 -389 392
-393 -391
-393 -392
391 392 393
-394 -386
-394 -389
386 389 394
-395 -390
-395 -394
390 394 395
-396 -58
-396 59
58 -59 396
-397 58
-397 -59
-58 59 397
-398 -396
-398 -397
396 397 398
-399 58
-399 59
-58 -59 399
-400 395
-400 -398
-395 398 400
-401 -395
-401 398
395 -398 401
-402 -400
-402 -401
400 401 402
-403 -395
-403 -398
395 398 403
-404 -399
-404 -403
399 403 404
-405 -59
-405 60
59 -60 405
-406 59
-406 -60
-59 60 406
-407 -405
-407 -406
405 406 407
-408 59
-408 60
-59 -60 408
-409 404
-409 -407
-404 407 409
-410 -404
-410 407
404 -407 410
-411 -409
-411 -410
409 410 411
-412 -404
-412 -407
404 407 412
-413 -408
-413 -412
408 412 413
-414 -60
-414 61
60 -61 414
-415 60
-415 -61
-60 61 415
-416 -414
-416 -415
414 415 416
-417 60
-417 61
-60 -61 417
-418 413
-418 -416
-413 416 418
-419 -413
-419 416
413 -416 419
-420 -418
-420 -419
418 419 420
-421 -413
-421 -416
413 416 421
-422 -417
-422 -421
417 421 422
-423 -61
-423 62
61 -62 423
-424 61
-424 -62
-61 62 424
-425 -423
-425 -424
423 424 425
-426 61
-426 62
-61 -62 426
-427 422
-427 -425
-422 425 427
-428 -422
-428 425
422 -425 428
-429 -427
-429 -428
427 428 429
-430 -422
-430 -425
422 425 430
-431 -426
-431 -430
426 430 431
-432 25
-432 -105
-25 105 432
-433 -25
-433 27
25 -27 433
-434 -432
-434 -433
432 433 434
-435 25
-435 -114
-25 114 435
-436 -25
-436 28
25 -28 436
-437 -435
-437 -436
435 436 437
-438 25
-438 -123
-25 123 438
-439 -25
-439 29
25 -29 439
-440 -438
-440 -439
438 439 440
-441 25
-441 -132
-25 132 441
-442 -25
-442 30
25 -30 442
-443 -441
-443 -442
441 442 443
-444 25
-444 -141
-25 141 444
-445 -25
-445 31
25 -31 445
-446 -444
-446 -445
444 445 446
-447 25
-447 -150
-25 150 447
-448 -25
-448 32
25 -32 448
-449 -447
-449 -448
447 448 449
-450 25
-450 -159
-25 159 450
-451 -25
-451 33
25 -33 451
-452 -450
-452 -451
450 451 452
-453 25
-453 -168
-25 168 453
-454 -25
-454 34
25 -34 454
-455 -453
-455 -454
453 454 455
-456 25
-456 -177
-25 177 456
-457 -25
-457 35
25 -35 457
-458 -456
-458 -457
456 457 458
-459 25
-459 -186
-25 186 459
-460 -25
-460 36
25 -36 460
-461 -459
-461 -460
459 460 461
-462 25
-462 -195
-25 195 462
-463 -25
-463 37
25 -37 463
-464 -462
-464 -463
462 463 464
-465 25
-465 -204
-25 204 465
-466 -25
-466 38
25 -38 466
-467 -465
-467 -466
465 466 467
-468 25
-468 -213
-25 213 468
-469 -25
-469 39
25 -39 469
-470 -468
-470 -469
468 469 470
-471 25
-471 -222
-25 222 471
-472 -25
-472 40
25 -40 472
-473 -471
-473 -472
471 472 473
-474 25
-474 -231
-25 231 474
-475 -25
-475 41
25 -41 475
-476 -474
-476 -475
474 475 476
-477 25
-477 -240
-25 240 477
-478 -25
-478 42
25 -42 478
-479 -477
-479 -478
477 478 479
-480 25
-480 -249
-25 249 480
-481 -25
-481 43
25 -43 481
-482 -480
-482 -481
480 481 482
-483 25
-483 -258
-25 258 483
-484 -25
-484 44
25 -44 484
-485 -483
-485 -484
483 484 485
-486 25
-486 -267
-25 267 486
-487 -25
-487 45
25 -45 487
-488 -486
-488 -487
486 487 488
-489 25
-489 -276
-25 276 489
-490 -25
-490 46
25 -46 490
-491 -489
-491 -490
489 490 491
-492 25
-492 -285
-25 285 492
-493 -25
-493 47
25 -47 493
-494 -492
-494 -493
492 493 494
-495 25
-495 -294
-25 294 495
-496 -25
-496 48
25 -48 496
-497 -495
-497 -496
495 496 497
-498 25
-498 -303
-25 303 498
-499 -25
-499 49
25 -49 499
-500 -498
-500 -499
498 499 500
-501 25
-501 -312
-25 312 501
-502 -25
-502 50
25 -50 502
-503 -501
-503 -502
501 502 503
-504 25
-504 -321
-25 321 504
-505 -25
-505 51
25 -51 505
-506 -504
-506 -505
504 505 506
-507 25
-507 -330
-25 330 507
-508 -25
-508 52
25 -52 508
-509 -507
-509 -508
507 508 509
-510 25
-510 -339
-25 339 510
-511 -25
-511 53
25 -53 511
-512 -510
-512 -511
510 511 512
-513 25
-513 -348
-25 348 513
-514 -25
-514 54
25 -54 514
-515 -513
-515 -514
513 514 515
-516 25
-516 -357
-25 357 516
-517 -25
-517 55
25 -55 517
-518 -516
-518 -517
516 517 518
-519 25
-519 -366
-25 366 519
-520 -25
-520 56
25 -56 520
-521 -519
-521 -520
519 520 521
-522 25
-522 -375
-25 375 522
-523 -25
-523 57
25 -57 523
-524 -522
-524 -523
522 523 524
-525 25
-525 -384
-25 384 525
-526 -25
-526 58
25 -58 526
-527 -525
-527 -526
525 526 527
-528 25
-528 -393
-25 393 528
-529 -25
-529 59
25 -59 529
-530 -528
-530 -529
528 529 530
-531 25
-531 -402
-25 402 531
-532 -25
-532 60
25 -60 532
-533 -531
-533 -532
531 532 533
-534 25
-534 -411
-25 411 534
-535 -25
-535 61
25 -61 535
-536 -534
-536 -535
534 535 536
-537 25
-537 -420
-25 420 537
-538 -25
-538 62
25 -62 538
-539 -537
-539 -538
537 538 539
-540 25
-540 -429
-25 429 540
-541 1
-541 98
-1 -98 541
-542 -98
-542 99
98 -99 542
-543 -541
-543 -542
541 542 543
-544 2
-544 98
-2 -98 544
-545 -98
-545 -434
98 434 545
-546 -544
-546 -545
544 545 546
-547 3
-547 98
-3 -98 547
-548 -98
-548 -437
98 437 548
-549 -547
-549 -548
547 548 549
-550 4
-550 98
-4 -98 550
-551 -98
-551 -440
98 440 551
-552 -550
-552 -551
550 551 552
-553 5
-553 98
-5 -98 553
-554 -98
-554 -443
98 443 554
-555 -553
-555 -554
553 554 555
-556 6
-556 98
-6 -98 556
-557 -98
-557 -446
98 446 557
-558 -556
-558 -557
556 557 558
-559 7
-559 98
-7 -98 559
-560 -98
-560 -449
98 449 560
-561 -559
-561 -560
559 560 561
-562 8
-562 98
-8 -98 562
-563 -98
-563 -452
98 452 563
-564 -562
-564 -563
562 563 564
-565 9
-565 98
-9 -98 565
-566 -98
-566 -455
98 455 566
-567 -565
-567 -566
565 566 567
-568 10
-568 98
-10 -98 568
-569 -98
-569 -458
98 458 569
-570 -568
-570 -569
568 569 570
-571 11
-571 98
-11 -98 571
-572 -98
-572 -461
98 461 572
-573 -571
-573 -572
571 572 573
-574 12
-574 98
-12 -98 574
-575 -98
-575 -464
98 464 575
-576 -574
-576 -575
574 575 576
-577 13
-577 98
-13 -98 577
-578 -98
-578 -467
98 467 578
-579 -577
-579 -578
577 578 579
-580 14
-580 98
-14 -98 580
-581 -98
-581 -470
98 470 581
-582 -580
-582 -581
580 581 582
-583 15
-583 98
-15 -98 583
-584 -98
-584 -473
98 473 584
-585 -583
-585 -584
583 584 585
-586 16
-586 98
-16 -98 586
-587 -98
-587 -476
98 476 587
-588 -586
-588 -587
586 587 588
-589 17
-589 98
-17 -98 589
-590 -98
-590 -479
98 479 590
-591 -589
-591 -590
589 590 591
-592 18
-592 98
-18 -98 592
-593 -98
-593 -482
98 482 593
-594 -592
-594 -593
592 593 594
-595 19
-595 98
-19 -98 595
-596 -98
-596 -485
98 485 596
-597 -595
-597 -596
595 596 597
-598 20
-598 98
-20 -98 598
-599 -98
-599 -488
98 488 599
-600 -598
-600 -599
598 599 600
-601 21
-601 98
-21 -98 601
-602 -98
-602 -491
98 491 602
-603 -601
-603 -602
601 602 603
-604 22
-604 98
-22 -98 604
-605 -98
-605 -494
98 494 605
-606 -604
-606 -605
604 605 606
-607 23
-607 98
-23 -98 607
-608 -98
-608 -497
98 497 608
-609 -607
-609 -608
607 608 609
-610 24
-610 98
-24 -98 610
-611 -98
-611 -500
98 500 611
-612 -610
-612 -611
610 611 612
-613 -98
-613 -503
98 503 613
-614 -98
-614 -506
98 506 614
-615 -98
-615 -509
98 509 615
-616 -98
-616 -512
98 512 616
-617 -98
-617 -515
98 515 617
-618 -98
-618 -518
98 518 618
-619 -98
-619 -521
98 521 619
-620 -98
-620 -524
98 524 620
-621 -98
-621 -527
98 527 621
-622 -98
-622 -530
98 530 622
-623 -98
-623 -533
98 533 623
-624 -98
-624 -536
98 536 624
-625 -98
-625 -539
98 539 625
-626 -98
-626 540
98 -540 626
-627 -62
-627 431
62 -431 627
-628 25
-628 -627
-25 627 628
628
